p cnf 589 1170
1 2 3 4 5 6 7 8 9 10 11 12 13 23 25 34 37 45 49 56 61 67 73 78 85 89 97 100 109 111 121 0
1 2 3 4 5 6 7 8 9 10 11 12 13 14 24 26 35 38 46 50 57 62 68 74 79 86 90 98 101 110 112 0
1 2 3 4 5 6 7 8 9 10 11 13 14 15 23 25 27 36 39 47 51 58 63 69 75 80 87 91 99 102 113 0
1 2 3 4 5 6 7 8 9 10 11 14 15 16 24 26 28 34 37 40 48 52 59 64 70 76 81 88 92 103 114 0
1 2 3 4 5 6 7 8 9 10 11 15 16 17 25 27 29 35 38 41 45 49 53 60 65 71 77 82 93 104 115 0
1 2 3 4 5 6 7 8 9 10 11 16 17 18 26 28 30 36 39 42 46 50 54 56 61 66 72 83 94 105 116 0
1 2 3 4 5 6 7 8 9 10 11 17 18 19 27 29 31 37 40 43 47 51 55 57 62 67 73 84 95 106 117 0
1 2 3 4 5 6 7 8 9 10 11 18 19 20 28 30 32 38 41 44 48 52 58 63 68 74 78 85 96 107 118 0
1 2 3 4 5 6 7 8 9 10 11 19 20 21 29 31 33 39 42 49 53 59 64 69 75 79 86 89 97 108 119 0
1 2 3 4 5 6 7 8 9 10 11 20 21 22 30 32 40 43 50 54 60 65 70 76 80 87 90 98 100 109 120 0
1 2 3 4 5 6 7 8 9 10 11 21 22 31 33 41 44 51 55 61 66 71 77 81 88 91 99 101 110 111 121 0
1 2 12 13 14 15 16 17 18 19 20 21 22 23 24 34 36 45 48 56 60 67 72 78 84 89 96 100 108 111 120 0
1 2 3 12 13 14 15 16 17 18 19 20 21 22 23 24 25 35 37 46 49 57 61 68 73 79 85 90 97 101 109 112 121 0
2 3 4 12 13 14 15 16 17 18 19 20 21 22 24 25 26 34 36 38 47 50 58 62 69 74 80 86 91 98 102 110 113 0
3 4 5 12 13 14 15 16 17 18 19 20 21 22 25 26 27 35 37 39 45 48 51 59 63 70 75 81 87 92 99 103 114 0
4 5 6 12 13 14 15 16 17 18 19 20 21 22 26 27 28 36 38 40 46 49 52 56 60 64 71 76 82 88 93 104 115 0
5 6 7 12 13 14 15 16 17 18 19 20 21 22 27 28 29 37 39 41 47 50 53 57 61 65 67 72 77 83 94 105 116 0
6 7 8 12 13 14 15 16 17 18 19 20 21 22 28 29 30 38 40 42 48 51 54 58 62 66 68 73 78 84 95 106 117 0
7 8 9 12 13 14 15 16 17 18 19 20 21 22 29 30 31 39 41 43 49 52 55 59 63 69 74 79 85 89 96 107 118 0
8 9 10 12 13 14 15 16 17 18 19 20 21 22 30 31 32 40 42 44 50 53 60 64 70 75 80 86 90 97 100 108 119 0
9 10 11 12 13 14 15 16 17 18 19 20 21 22 31 32 33 41 43 51 54 61 65 71 76 81 87 91 98 101 109 111 120 0
10 11 12 13 14 15 16 17 18 19 20 21 22 32 33 42 44 52 55 62 66 72 77 82 88 92 99 102 110 112 121 0
1 3 12 13 23 24 25 26 27 28 29 30 31 32 33 34 35 45 47 56 59 67 71 78 83 89 95 100 107 111 119 0
2 4 12 13 14 23 24 25 26 27 28 29 30 31 32 33 34 35 36 46 48 57 60 68 72 79 84 90 96 101 108 112 120 0
1 3 5 13 14 15 23 24 25 26 27 28 29 30 31 32 33 35 36 37 45 47 49 58 61 69 73 80 85 91 97 102 109 113 121 0
2 4 6 14 15 16 23 24 25 26 27 28 29 30 31 32 33 36 37 38 46 48 50 56 59 62 70 74 81 86 92 98 103 110 114 0
3 5 7 15 16 17 23 24 25 26 27 28 29 30 31 32 33 37 38 39 47 49 51 57 60 63 67 71 75 82 87 93 99 104 115 0
4 6 8 16 17 18 23 24 25 26 27 28 29 30 31 32 33 38 39 40 48 50 52 58 61 64 68 72 76 78 83 88 94 105 116 0
5 7 9 17 18 19 23 24 25 26 27 28 29 30 31 32 33 39 40 41 49 51 53 59 62 65 69 73 77 79 84 89 95 106 117 0
6 8 10 18 19 20 23 24 25 26 27 28 29 30 31 32 33 40 41 42 50 52 54 60 63 66 70 74 80 85 90 96 100 107 118 0
7 9 11 19 20 21 23 24 25 26 27 28 29 30 31 32 33 41 42 43 51 53 55 61 64 71 75 81 86 91 97 101 108 111 119 0
8 10 20 21 22 23 24 25 26 27 28 29 30 31 32 33 42 43 44 52 54 62 65 72 76 82 87 92 98 102 109 112 120 0
9 11 21 22 23 24 25 26 27 28 29 30 31 32 33 43 44 53 55 63 66 73 77 83 88 93 99 103 110 113 121 0
1 4 12 14 23 24 34 35 36 37 38 39 40 41 42 43 44 45 46 56 58 67 70 78 82 89 94 100 106 111 118 0
2 5 13 15 23 24 25 34 35 36 37 38 39 40 41 42 43 44 45 46 47 57 59 68 71 79 83 90 95 101 107 112 119 0
3 6 12 14 16 24 25 26 34 35 36 37 38 39 40 41 42 43 44 46 47 48 56 58 60 69 72 80 84 91 96 102 108 113 120 0
1 4 7 13 15 17 25 26 27 34 35 36 37 38 39 40 41 42 43 44 47 48 49 57 59 61 67 70 73 81 85 92 97 103 109 114 121 0
2 5 8 14 16 18 26 27 28 34 35 36 37 38 39 40 41 42 43 44 48 49 50 58 60 62 68 71 74 78 82 86 93 98 104 110 115 0
3 6 9 15 17 19 27 28 29 34 35 36 37 38 39 40 41 42 43 44 49 50 51 59 61 63 69 72 75 79 83 87 89 94 99 105 116 0
4 7 10 16 18 20 28 29 30 34 35 36 37 38 39 40 41 42 43 44 50 51 52 60 62 64 70 73 76 80 84 88 90 95 100 106 117 0
5 8 11 17 19 21 29 30 31 34 35 36 37 38 39 40 41 42 43 44 51 52 53 61 63 65 71 74 77 81 85 91 96 101 107 111 118 0
6 9 18 20 22 30 31 32 34 35 36 37 38 39 40 41 42 43 44 52 53 54 62 64 66 72 75 82 86 92 97 102 108 112 119 0
7 10 19 21 31 32 33 34 35 36 37 38 39 40 41 42 43 44 53 54 55 63 65 73 76 83 87 93 98 103 109 113 120 0
8 11 20 22 32 33 34 35 36 37 38 39 40 41 42 43 44 54 55 64 66 74 77 84 88 94 99 104 110 114 121 0
1 5 12 15 23 25 34 35 45 46 47 48 49 50 51 52 53 54 55 56 57 67 69 78 81 89 93 100 105 111 117 0
2 6 13 16 24 26 34 35 36 45 46 47 48 49 50 51 52 53 54 55 56 57 58 68 70 79 82 90 94 101 106 112 118 0
3 7 14 17 23 25 27 35 36 37 45 46 47 48 49 50 51 52 53 54 55 57 58 59 67 69 71 80 83 91 95 102 107 113 119 0
4 8 12 15 18 24 26 28 36 37 38 45 46 47 48 49 50 51 52 53 54 55 58 59 60 68 70 72 78 81 84 92 96 103 108 114 120 0
1 5 9 13 16 19 25 27 29 37 38 39 45 46 47 48 49 50 51 52 53 54 55 59 60 61 69 71 73 79 82 85 89 93 97 104 109 115 121 0
2 6 10 14 17 20 26 28 30 38 39 40 45 46 47 48 49 50 51 52 53 54 55 60 61 62 70 72 74 80 83 86 90 94 98 100 105 110 116 0
3 7 11 15 18 21 27 29 31 39 40 41 45 46 47 48 49 50 51 52 53 54 55 61 62 63 71 73 75 81 84 87 91 95 99 101 106 111 117 0
4 8 16 19 22 28 30 32 40 41 42 45 46 47 48 49 50 51 52 53 54 55 62 63 64 72 74 76 82 85 88 92 96 102 107 112 118 0
5 9 17 20 29 31 33 41 42 43 45 46 47 48 49 50 51 52 53 54 55 63 64 65 73 75 77 83 86 93 97 103 108 113 119 0
6 10 18 21 30 32 42 43 44 45 46 47 48 49 50 51 52 53 54 55 64 65 66 74 76 84 87 94 98 104 109 114 120 0
7 11 19 22 31 33 43 44 45 46 47 48 49 50 51 52 53 54 55 65 66 75 77 85 88 95 99 105 110 115 121 0
1 6 12 16 23 26 34 36 45 46 56 57 58 59 60 61 62 63 64 65 66 67 68 78 80 89 92 100 104 111 116 0
2 7 13 17 24 27 35 37 45 46 47 56 57 58 59 60 61 62 63 64 65 66 67 68 69 79 81 90 93 101 105 112 117 0
3 8 14 18 25 28 34 36 38 46 47 48 56 57 58 59 60 61 62 63 64 65 66 68 69 70 78 80 82 91 94 102 106 113 118 0
4 9 15 19 23 26 29 35 37 39 47 48 49 56 57 58 59 60 61 62 63 64 65 66 69 70 71 79 81 83 89 92 95 103 107 114 119 0
5 10 12 16 20 24 27 30 36 38 40 48 49 50 56 57 58 59 60 61 62 63 64 65 66 70 71 72 80 82 84 90 93 96 100 104 108 115 120 0
1 6 11 13 17 21 25 28 31 37 39 41 49 50 51 56 57 58 59 60 61 62 63 64 65 66 71 72 73 81 83 85 91 94 97 101 105 109 111 116 121 0
2 7 14 18 22 26 29 32 38 40 42 50 51 52 56 57 58 59 60 61 62 63 64 65 66 72 73 74 82 84 86 92 95 98 102 106 110 112 117 0
3 8 15 19 27 30 33 39 41 43 51 52 53 56 57 58 59 60 61 62 63 64 65 66 73 74 75 83 85 87 93 96 99 103 107 113 118 0
4 9 16 20 28 31 40 42 44 52 53 54 56 57 58 59 60 61 62 63 64 65 66 74 75 76 84 86 88 94 97 104 108 114 119 0
5 10 17 21 29 32 41 43 53 54 55 56 57 58 59 60 61 62 63 64 65 66 75 76 77 85 87 95 98 105 109 115 120 0
6 11 18 22 30 33 42 44 54 55 56 57 58 59 60 61 62 63 64 65 66 76 77 86 88 96 99 106 110 116 121 0
1 7 12 17 23 27 34 37 45 47 56 57 67 68 69 70 71 72 73 74 75 76 77 78 79 89 91 100 103 111 115 0
2 8 13 18 24 28 35 38 46 48 56 57 58 67 68 69 70 71 72 73 74 75 76 77 78 79 80 90 92 101 104 112 116 0
3 9 14 19 25 29 36 39 45 47 49 57 58 59 67 68 69 70 71 72 73 74 75 76 77 79 80 81 89 91 93 102 105 113 117 0
4 10 15 20 26 30 34 37 40 46 48 50 58 59 60 67 68 69 70 71 72 73 74 75 76 77 80 81 82 90 92 94 100 103 106 114 118 0
5 11 16 21 23 27 31 35 38 41 47 49 51 59 60 61 67 68 69 70 71 72 73 74 75 76 77 81 82 83 91 93 95 101 104 107 111 115 119 0
6 12 17 22 24 28 32 36 39 42 48 50 52 60 61 62 67 68 69 70 71 72 73 74 75 76 77 82 83 84 92 94 96 102 105 108 112 116 120 0
1 7 13 18 25 29 33 37 40 43 49 51 53 61 62 63 67 68 69 70 71 72 73 74 75 76 77 83 84 85 93 95 97 103 106 109 113 117 121 0
2 8 14 19 26 30 38 41 44 50 52 54 62 63 64 67 68 69 70 71 72 73 74 75 76 77 84 85 86 94 96 98 104 107 110 114 118 0
3 9 15 20 27 31 39 42 51 53 55 63 64 65 67 68 69 70 71 72 73 74 75 76 77 85 86 87 95 97 99 105 108 115 119 0
4 10 16 21 28 32 40 43 52 54 64 65 66 67 68 69 70 71 72 73 74 75 76 77 86 87 88 96 98 106 109 116 120 0
5 11 17 22 29 33 41 44 53 55 65 66 67 68 69 70 71 72 73 74 75 76 77 87 88 97 99 107 110 117 121 0
1 8 12 18 23 28 34 38 45 48 56 58 67 68 78 79 80 81 82 83 84 85 86 87 88 89 90 100 102 111 114 0
2 9 13 19 24 29 35 39 46 49 57 59 67 68 69 78 79 80 81 82 83 84 85 86 87 88 89 90 91 101 103 112 115 0
3 10 14 20 25 30 36 40 47 50 56 58 60 68 69 70 78 79 80 81 82 83 84 85 86 87 88 90 91 92 100 102 104 113 116 0
4 11 15 21 26 31 37 41 45 48 51 57 59 61 69 70 71 78 79 80 81 82 83 84 85 86 87 88 91 92 93 101 103 105 111 114 117 0
5 16 22 27 32 34 38 42 46 49 52 58 60 62 70 71 72 78 79 80 81 82 83 84 85 86 87 88 92 93 94 102 104 106 112 115 118 0
6 17 23 28 33 35 39 43 47 50 53 59 61 63 71 72 73 78 79 80 81 82 83 84 85 86 87 88 93 94 95 103 105 107 113 116 119 0
7 12 18 24 29 36 40 44 48 51 54 60 62 64 72 73 74 78 79 80 81 82 83 84 85 86 87 88 94 95 96 104 106 108 114 117 120 0
1 8 13 19 25 30 37 41 49 52 55 61 63 65 73 74 75 78 79 80 81 82 83 84 85 86 87 88 95 96 97 105 107 109 115 118 121 0
2 9 14 20 26 31 38 42 50 53 62 64 66 74 75 76 78 79 80 81 82 83 84 85 86 87 88 96 97 98 106 108 110 116 119 0
3 10 15 21 27 32 39 43 51 54 63 65 75 76 77 78 79 80 81 82 83 84 85 86 87 88 97 98 99 107 109 117 120 0
4 11 16 22 28 33 40 44 52 55 64 66 76 77 78 79 80 81 82 83 84 85 86 87 88 98 99 108 110 118 121 0
1 9 12 19 23 29 34 39 45 49 56 59 67 69 78 79 89 90 91 92 93 94 95 96 97 98 99 100 101 111 113 0
2 10 13 20 24 30 35 40 46 50 57 60 68 70 78 79 80 89 90 91 92 93 94 95 96 97 98 99 100 101 102 112 114 0
3 11 14 21 25 31 36 41 47 51 58 61 67 69 71 79 80 81 89 90 91 92 93 94 95 96 97 98 99 101 102 103 111 113 115 0
4 15 22 26 32 37 42 48 52 56 59 62 68 70 72 80 81 82 89 90 91 92 93 94 95 96 97 98 99 102 103 104 112 114 116 0
5 16 27 33 38 43 45 49 53 57 60 63 69 71 73 81 82 83 89 90 91 92 93 94 95 96 97 98 99 103 104 105 113 115 117 0
6 17 28 34 39 44 46 50 54 58 61 64 70 72 74 82 83 84 89 90 91 92 93 94 95 96 97 98 99 104 105 106 114 116 118 0
7 18 23 29 35 40 47 51 55 59 62 65 71 73 75 83 84 85 89 90 91 92 93 94 95 96 97 98 99 105 106 107 115 117 119 0
8 12 19 24 30 36 41 48 52 60 63 66 72 74 76 84 85 86 89 90 91 92 93 94 95 96 97 98 99 106 107 108 116 118 120 0
1 9 13 20 25 31 37 42 49 53 61 64 73 75 77 85 86 87 89 90 91 92 93 94 95 96 97 98 99 107 108 109 117 119 121 0
2 10 14 21 26 32 38 43 50 54 62 65 74 76 86 87 88 89 90 91 92 93 94 95 96 97 98 99 108 109 110 118 120 0
3 11 15 22 27 33 39 44 51 55 63 66 75 77 87 88 89 90 91 92 93 94 95 96 97 98 99 109 110 119 121 0
1 10 12 20 23 30 34 40 45 50 56 60 67 70 78 80 89 90 100 101 102 103 104 105 106 107 108 109 110 111 112 0
2 11 13 21 24 31 35 41 46 51 57 61 68 71 79 81 89 90 91 100 101 102 103 104 105 106 107 108 109 110 111 112 113 0
3 14 22 25 32 36 42 47 52 58 62 69 72 78 80 82 90 91 92 100 101 102 103 104 105 106 107 108 109 110 112 113 114 0
4 15 26 33 37 43 48 53 59 63 67 70 73 79 81 83 91 92 93 100 101 102 103 104 105 106 107 108 109 110 113 114 115 0
5 16 27 38 44 49 54 56 60 64 68 71 74 80 82 84 92 93 94 100 101 102 103 104 105 106 107 108 109 110 114 115 116 0
6 17 28 39 45 50 55 57 61 65 69 72 75 81 83 85 93 94 95 100 101 102 103 104 105 106 107 108 109 110 115 116 117 0
7 18 29 34 40 46 51 58 62 66 70 73 76 82 84 86 94 95 96 100 101 102 103 104 105 106 107 108 109 110 116 117 118 0
8 19 23 30 35 41 47 52 59 63 71 74 77 83 85 87 95 96 97 100 101 102 103 104 105 106 107 108 109 110 117 118 119 0
9 12 20 24 31 36 42 48 53 60 64 72 75 84 86 88 96 97 98 100 101 102 103 104 105 106 107 108 109 110 118 119 120 0
1 10 13 21 25 32 37 43 49 54 61 65 73 76 85 87 97 98 99 100 101 102 103 104 105 106 107 108 109 110 119 120 121 0
2 11 14 22 26 33 38 44 50 55 62 66 74 77 86 88 98 99 100 101 102 103 104 105 106 107 108 109 110 120 121 0
1 11 12 21 23 31 34 41 45 51 56 61 67 71 78 81 89 91 100 101 111 112 113 114 115 116 117 118 119 120 121 0
2 13 22 24 32 35 42 46 52 57 62 68 72 79 82 90 92 100 101 102 111 112 113 114 115 116 117 118 119 120 121 0
3 14 25 33 36 43 47 53 58 63 69 73 80 83 89 91 93 101 102 103 111 112 113 114 115 116 117 118 119 120 121 0
4 15 26 37 44 48 54 59 64 70 74 78 81 84 90 92 94 102 103 104 111 112 113 114 115 116 117 118 119 120 121 0
5 16 27 38 49 55 60 65 67 71 75 79 82 85 91 93 95 103 104 105 111 112 113 114 115 116 117 118 119 120 121 0
6 17 28 39 50 56 61 66 68 72 76 80 83 86 92 94 96 104 105 106 111 112 113 114 115 116 117 118 119 120 121 0
7 18 29 40 45 51 57 62 69 73 77 81 84 87 93 95 97 105 106 107 111 112 113 114 115 116 117 118 119 120 121 0
8 19 30 34 41 46 52 58 63 70 74 82 85 88 94 96 98 106 107 108 111 112 113 114 115 116 117 118 119 120 121 0
9 20 23 31 35 42 47 53 59 64 71 75 83 86 95 97 99 107 108 109 111 112 113 114 115 116 117 118 119 120 121 0
10 12 21 24 32 36 43 48 54 60 65 72 76 84 87 96 98 108 109 110 111 112 113 114 115 116 117 118 119 120 121 0
1 11 13 22 25 33 37 44 49 55 61 66 73 77 85 88 97 99 109 110 111 112 113 114 115 116 117 118 119 120 121 0
-1 122 0
-122 123 0
-2 -122 124 0
-124 125 0
-3 -124 126 0
-126 127 0
-4 -126 128 0
-128 129 0
-5 -128 0
-2 123 0
-123 130 0
-3 -123 125 0
-125 131 0
-4 -125 127 0
-127 132 0
-5 -127 129 0
-129 133 0
-6 -129 0
-3 130 0
-130 134 0
-4 -130 131 0
-131 135 0
-5 -131 132 0
-132 136 0
-6 -132 133 0
-133 137 0
-7 -133 0
-4 134 0
-134 138 0
-5 -134 135 0
-135 139 0
-6 -135 136 0
-136 140 0
-7 -136 137 0
-137 141 0
-8 -137 0
-5 138 0
-138 142 0
-6 -138 139 0
-139 143 0
-7 -139 140 0
-140 144 0
-8 -140 141 0
-141 145 0
-9 -141 0
-6 142 0
-142 146 0
-7 -142 143 0
-143 147 0
-8 -143 144 0
-144 148 0
-9 -144 145 0
-145 149 0
-10 -145 0
-7 146 0
-146 150 0
-8 -146 147 0
-147 151 0
-9 -147 148 0
-148 152 0
-10 -148 149 0
-149 153 0
-11 -149 0
-8 150 0
-150 154 0
-9 -150 151 0
-151 155 0
-10 -151 152 0
-152 156 0
-11 -152 153 0
-153 157 0
-12 -153 0
-9 154 0
-154 158 0
-10 -154 155 0
-155 159 0
-11 -155 156 0
-156 160 0
-12 -156 157 0
-157 161 0
-13 -157 0
-10 158 0
-158 162 0
-11 -158 159 0
-159 163 0
-12 -159 160 0
-160 164 0
-13 -160 161 0
-161 165 0
-14 -161 0
-11 162 0
-162 166 0
-12 -162 163 0
-163 167 0
-13 -163 164 0
-164 168 0
-14 -164 165 0
-165 169 0
-15 -165 0
-12 166 0
-166 170 0
-13 -166 167 0
-167 171 0
-14 -167 168 0
-168 172 0
-15 -168 169 0
-169 173 0
-16 -169 0
-13 170 0
-170 174 0
-14 -170 171 0
-171 175 0
-15 -171 172 0
-172 176 0
-16 -172 173 0
-173 177 0
-17 -173 0
-14 174 0
-174 178 0
-15 -174 175 0
-175 179 0
-16 -175 176 0
-176 180 0
-17 -176 177 0
-177 181 0
-18 -177 0
-15 178 0
-178 182 0
-16 -178 179 0
-179 183 0
-17 -179 180 0
-180 184 0
-18 -180 181 0
-181 185 0
-19 -181 0
-16 182 0
-182 186 0
-17 -182 183 0
-183 187 0
-18 -183 184 0
-184 188 0
-19 -184 185 0
-185 189 0
-20 -185 0
-17 186 0
-186 190 0
-18 -186 187 0
-187 191 0
-19 -187 188 0
-188 192 0
-20 -188 189 0
-189 193 0
-21 -189 0
-18 190 0
-190 194 0
-19 -190 191 0
-191 195 0
-20 -191 192 0
-192 196 0
-21 -192 193 0
-193 197 0
-22 -193 0
-19 194 0
-194 198 0
-20 -194 195 0
-195 199 0
-21 -195 196 0
-196 200 0
-22 -196 197 0
-197 201 0
-23 -197 0
-20 198 0
-198 202 0
-21 -198 199 0
-199 203 0
-22 -199 200 0
-200 204 0
-23 -200 201 0
-201 205 0
-24 -201 0
-21 202 0
-202 206 0
-22 -202 203 0
-203 207 0
-23 -203 204 0
-204 208 0
-24 -204 205 0
-205 209 0
-25 -205 0
-22 206 0
-206 210 0
-23 -206 207 0
-207 211 0
-24 -207 208 0
-208 212 0
-25 -208 209 0
-209 213 0
-26 -209 0
-23 210 0
-210 214 0
-24 -210 211 0
-211 215 0
-25 -211 212 0
-212 216 0
-26 -212 213 0
-213 217 0
-27 -213 0
-24 214 0
-214 218 0
-25 -214 215 0
-215 219 0
-26 -215 216 0
-216 220 0
-27 -216 217 0
-217 221 0
-28 -217 0
-25 218 0
-218 222 0
-26 -218 219 0
-219 223 0
-27 -219 220 0
-220 224 0
-28 -220 221 0
-221 225 0
-29 -221 0
-26 222 0
-222 226 0
-27 -222 223 0
-223 227 0
-28 -223 224 0
-224 228 0
-29 -224 225 0
-225 229 0
-30 -225 0
-27 226 0
-226 230 0
-28 -226 227 0
-227 231 0
-29 -227 228 0
-228 232 0
-30 -228 229 0
-229 233 0
-31 -229 0
-28 230 0
-230 234 0
-29 -230 231 0
-231 235 0
-30 -231 232 0
-232 236 0
-31 -232 233 0
-233 237 0
-32 -233 0
-29 234 0
-234 238 0
-30 -234 235 0
-235 239 0
-31 -235 236 0
-236 240 0
-32 -236 237 0
-237 241 0
-33 -237 0
-30 238 0
-238 242 0
-31 -238 239 0
-239 243 0
-32 -239 240 0
-240 244 0
-33 -240 241 0
-241 245 0
-34 -241 0
-31 242 0
-242 246 0
-32 -242 243 0
-243 247 0
-33 -243 244 0
-244 248 0
-34 -244 245 0
-245 249 0
-35 -245 0
-32 246 0
-246 250 0
-33 -246 247 0
-247 251 0
-34 -247 248 0
-248 252 0
-35 -248 249 0
-249 253 0
-36 -249 0
-33 250 0
-250 254 0
-34 -250 251 0
-251 255 0
-35 -251 252 0
-252 256 0
-36 -252 253 0
-253 257 0
-37 -253 0
-34 254 0
-254 258 0
-35 -254 255 0
-255 259 0
-36 -255 256 0
-256 260 0
-37 -256 257 0
-257 261 0
-38 -257 0
-35 258 0
-258 262 0
-36 -258 259 0
-259 263 0
-37 -259 260 0
-260 264 0
-38 -260 261 0
-261 265 0
-39 -261 0
-36 262 0
-262 266 0
-37 -262 263 0
-263 267 0
-38 -263 264 0
-264 268 0
-39 -264 265 0
-265 269 0
-40 -265 0
-37 266 0
-266 270 0
-38 -266 267 0
-267 271 0
-39 -267 268 0
-268 272 0
-40 -268 269 0
-269 273 0
-41 -269 0
-38 270 0
-270 274 0
-39 -270 271 0
-271 275 0
-40 -271 272 0
-272 276 0
-41 -272 273 0
-273 277 0
-42 -273 0
-39 274 0
-274 278 0
-40 -274 275 0
-275 279 0
-41 -275 276 0
-276 280 0
-42 -276 277 0
-277 281 0
-43 -277 0
-40 278 0
-278 282 0
-41 -278 279 0
-279 283 0
-42 -279 280 0
-280 284 0
-43 -280 281 0
-281 285 0
-44 -281 0
-41 282 0
-282 286 0
-42 -282 283 0
-283 287 0
-43 -283 284 0
-284 288 0
-44 -284 285 0
-285 289 0
-45 -285 0
-42 286 0
-286 290 0
-43 -286 287 0
-287 291 0
-44 -287 288 0
-288 292 0
-45 -288 289 0
-289 293 0
-46 -289 0
-43 290 0
-290 294 0
-44 -290 291 0
-291 295 0
-45 -291 292 0
-292 296 0
-46 -292 293 0
-293 297 0
-47 -293 0
-44 294 0
-294 298 0
-45 -294 295 0
-295 299 0
-46 -295 296 0
-296 300 0
-47 -296 297 0
-297 301 0
-48 -297 0
-45 298 0
-298 302 0
-46 -298 299 0
-299 303 0
-47 -299 300 0
-300 304 0
-48 -300 301 0
-301 305 0
-49 -301 0
-46 302 0
-302 306 0
-47 -302 303 0
-303 307 0
-48 -303 304 0
-304 308 0
-49 -304 305 0
-305 309 0
-50 -305 0
-47 306 0
-306 310 0
-48 -306 307 0
-307 311 0
-49 -307 308 0
-308 312 0
-50 -308 309 0
-309 313 0
-51 -309 0
-48 310 0
-310 314 0
-49 -310 311 0
-311 315 0
-50 -311 312 0
-312 316 0
-51 -312 313 0
-313 317 0
-52 -313 0
-49 314 0
-314 318 0
-50 -314 315 0
-315 319 0
-51 -315 316 0
-316 320 0
-52 -316 317 0
-317 321 0
-53 -317 0
-50 318 0
-318 322 0
-51 -318 319 0
-319 323 0
-52 -319 320 0
-320 324 0
-53 -320 321 0
-321 325 0
-54 -321 0
-51 322 0
-322 326 0
-52 -322 323 0
-323 327 0
-53 -323 324 0
-324 328 0
-54 -324 325 0
-325 329 0
-55 -325 0
-52 326 0
-326 330 0
-53 -326 327 0
-327 331 0
-54 -327 328 0
-328 332 0
-55 -328 329 0
-329 333 0
-56 -329 0
-53 330 0
-330 334 0
-54 -330 331 0
-331 335 0
-55 -331 332 0
-332 336 0
-56 -332 333 0
-333 337 0
-57 -333 0
-54 334 0
-334 338 0
-55 -334 335 0
-335 339 0
-56 -335 336 0
-336 340 0
-57 -336 337 0
-337 341 0
-58 -337 0
-55 338 0
-338 342 0
-56 -338 339 0
-339 343 0
-57 -339 340 0
-340 344 0
-58 -340 341 0
-341 345 0
-59 -341 0
-56 342 0
-342 346 0
-57 -342 343 0
-343 347 0
-58 -343 344 0
-344 348 0
-59 -344 345 0
-345 349 0
-60 -345 0
-57 346 0
-346 350 0
-58 -346 347 0
-347 351 0
-59 -347 348 0
-348 352 0
-60 -348 349 0
-349 353 0
-61 -349 0
-58 350 0
-350 354 0
-59 -350 351 0
-351 355 0
-60 -351 352 0
-352 356 0
-61 -352 353 0
-353 357 0
-62 -353 0
-59 354 0
-354 358 0
-60 -354 355 0
-355 359 0
-61 -355 356 0
-356 360 0
-62 -356 357 0
-357 361 0
-63 -357 0
-60 358 0
-358 362 0
-61 -358 359 0
-359 363 0
-62 -359 360 0
-360 364 0
-63 -360 361 0
-361 365 0
-64 -361 0
-61 362 0
-362 366 0
-62 -362 363 0
-363 367 0
-63 -363 364 0
-364 368 0
-64 -364 365 0
-365 369 0
-65 -365 0
-62 366 0
-366 370 0
-63 -366 367 0
-367 371 0
-64 -367 368 0
-368 372 0
-65 -368 369 0
-369 373 0
-66 -369 0
-63 370 0
-370 374 0
-64 -370 371 0
-371 375 0
-65 -371 372 0
-372 376 0
-66 -372 373 0
-373 377 0
-67 -373 0
-64 374 0
-374 378 0
-65 -374 375 0
-375 379 0
-66 -375 376 0
-376 380 0
-67 -376 377 0
-377 381 0
-68 -377 0
-65 378 0
-378 382 0
-66 -378 379 0
-379 383 0
-67 -379 380 0
-380 384 0
-68 -380 381 0
-381 385 0
-69 -381 0
-66 382 0
-382 386 0
-67 -382 383 0
-383 387 0
-68 -383 384 0
-384 388 0
-69 -384 385 0
-385 389 0
-70 -385 0
-67 386 0
-386 390 0
-68 -386 387 0
-387 391 0
-69 -387 388 0
-388 392 0
-70 -388 389 0
-389 393 0
-71 -389 0
-68 390 0
-390 394 0
-69 -390 391 0
-391 395 0
-70 -391 392 0
-392 396 0
-71 -392 393 0
-393 397 0
-72 -393 0
-69 394 0
-394 398 0
-70 -394 395 0
-395 399 0
-71 -395 396 0
-396 400 0
-72 -396 397 0
-397 401 0
-73 -397 0
-70 398 0
-398 402 0
-71 -398 399 0
-399 403 0
-72 -399 400 0
-400 404 0
-73 -400 401 0
-401 405 0
-74 -401 0
-71 402 0
-402 406 0
-72 -402 403 0
-403 407 0
-73 -403 404 0
-404 408 0
-74 -404 405 0
-405 409 0
-75 -405 0
-72 406 0
-406 410 0
-73 -406 407 0
-407 411 0
-74 -407 408 0
-408 412 0
-75 -408 409 0
-409 413 0
-76 -409 0
-73 410 0
-410 414 0
-74 -410 411 0
-411 415 0
-75 -411 412 0
-412 416 0
-76 -412 413 0
-413 417 0
-77 -413 0
-74 414 0
-414 418 0
-75 -414 415 0
-415 419 0
-76 -415 416 0
-416 420 0
-77 -416 417 0
-417 421 0
-78 -417 0
-75 418 0
-418 422 0
-76 -418 419 0
-419 423 0
-77 -419 420 0
-420 424 0
-78 -420 421 0
-421 425 0
-79 -421 0
-76 422 0
-422 426 0
-77 -422 423 0
-423 427 0
-78 -423 424 0
-424 428 0
-79 -424 425 0
-425 429 0
-80 -425 0
-77 426 0
-426 430 0
-78 -426 427 0
-427 431 0
-79 -427 428 0
-428 432 0
-80 -428 429 0
-429 433 0
-81 -429 0
-78 430 0
-430 434 0
-79 -430 431 0
-431 435 0
-80 -431 432 0
-432 436 0
-81 -432 433 0
-433 437 0
-82 -433 0
-79 434 0
-434 438 0
-80 -434 435 0
-435 439 0
-81 -435 436 0
-436 440 0
-82 -436 437 0
-437 441 0
-83 -437 0
-80 438 0
-438 442 0
-81 -438 439 0
-439 443 0
-82 -439 440 0
-440 444 0
-83 -440 441 0
-441 445 0
-84 -441 0
-81 442 0
-442 446 0
-82 -442 443 0
-443 447 0
-83 -443 444 0
-444 448 0
-84 -444 445 0
-445 449 0
-85 -445 0
-82 446 0
-446 450 0
-83 -446 447 0
-447 451 0
-84 -447 448 0
-448 452 0
-85 -448 449 0
-449 453 0
-86 -449 0
-83 450 0
-450 454 0
-84 -450 451 0
-451 455 0
-85 -451 452 0
-452 456 0
-86 -452 453 0
-453 457 0
-87 -453 0
-84 454 0
-454 458 0
-85 -454 455 0
-455 459 0
-86 -455 456 0
-456 460 0
-87 -456 457 0
-457 461 0
-88 -457 0
-85 458 0
-458 462 0
-86 -458 459 0
-459 463 0
-87 -459 460 0
-460 464 0
-88 -460 461 0
-461 465 0
-89 -461 0
-86 462 0
-462 466 0
-87 -462 463 0
-463 467 0
-88 -463 464 0
-464 468 0
-89 -464 465 0
-465 469 0
-90 -465 0
-87 466 0
-466 470 0
-88 -466 467 0
-467 471 0
-89 -467 468 0
-468 472 0
-90 -468 469 0
-469 473 0
-91 -469 0
-88 470 0
-470 474 0
-89 -470 471 0
-471 475 0
-90 -471 472 0
-472 476 0
-91 -472 473 0
-473 477 0
-92 -473 0
-89 474 0
-474 478 0
-90 -474 475 0
-475 479 0
-91 -475 476 0
-476 480 0
-92 -476 477 0
-477 481 0
-93 -477 0
-90 478 0
-478 482 0
-91 -478 479 0
-479 483 0
-92 -479 480 0
-480 484 0
-93 -480 481 0
-481 485 0
-94 -481 0
-91 482 0
-482 486 0
-92 -482 483 0
-483 487 0
-93 -483 484 0
-484 488 0
-94 -484 485 0
-485 489 0
-95 -485 0
-92 486 0
-486 490 0
-93 -486 487 0
-487 491 0
-94 -487 488 0
-488 492 0
-95 -488 489 0
-489 493 0
-96 -489 0
-93 490 0
-490 494 0
-94 -490 491 0
-491 495 0
-95 -491 492 0
-492 496 0
-96 -492 493 0
-493 497 0
-97 -493 0
-94 494 0
-494 498 0
-95 -494 495 0
-495 499 0
-96 -495 496 0
-496 500 0
-97 -496 497 0
-497 501 0
-98 -497 0
-95 498 0
-498 502 0
-96 -498 499 0
-499 503 0
-97 -499 500 0
-500 504 0
-98 -500 501 0
-501 505 0
-99 -501 0
-96 502 0
-502 506 0
-97 -502 503 0
-503 507 0
-98 -503 504 0
-504 508 0
-99 -504 505 0
-505 509 0
-100 -505 0
-97 506 0
-506 510 0
-98 -506 507 0
-507 511 0
-99 -507 508 0
-508 512 0
-100 -508 509 0
-509 513 0
-101 -509 0
-98 510 0
-510 514 0
-99 -510 511 0
-511 515 0
-100 -511 512 0
-512 516 0
-101 -512 513 0
-513 517 0
-102 -513 0
-99 514 0
-514 518 0
-100 -514 515 0
-515 519 0
-101 -515 516 0
-516 520 0
-102 -516 517 0
-517 521 0
-103 -517 0
-100 518 0
-518 522 0
-101 -518 519 0
-519 523 0
-102 -519 520 0
-520 524 0
-103 -520 521 0
-521 525 0
-104 -521 0
-101 522 0
-522 526 0
-102 -522 523 0
-523 527 0
-103 -523 524 0
-524 528 0
-104 -524 525 0
-525 529 0
-105 -525 0
-102 526 0
-526 530 0
-103 -526 527 0
-527 531 0
-104 -527 528 0
-528 532 0
-105 -528 529 0
-529 533 0
-106 -529 0
-103 530 0
-530 534 0
-104 -530 531 0
-531 535 0
-105 -531 532 0
-532 536 0
-106 -532 533 0
-533 537 0
-107 -533 0
-104 534 0
-534 538 0
-105 -534 535 0
-535 539 0
-106 -535 536 0
-536 540 0
-107 -536 537 0
-537 541 0
-108 -537 0
-105 538 0
-538 542 0
-106 -538 539 0
-539 543 0
-107 -539 540 0
-540 544 0
-108 -540 541 0
-541 545 0
-109 -541 0
-106 542 0
-542 546 0
-107 -542 543 0
-543 547 0
-108 -543 544 0
-544 548 0
-109 -544 545 0
-545 549 0
-110 -545 0
-107 546 0
-546 550 0
-108 -546 547 0
-547 551 0
-109 -547 548 0
-548 552 0
-110 -548 549 0
-549 553 0
-111 -549 0
-108 550 0
-550 554 0
-109 -550 551 0
-551 555 0
-110 -551 552 0
-552 556 0
-111 -552 553 0
-553 557 0
-112 -553 0
-109 554 0
-554 558 0
-110 -554 555 0
-555 559 0
-111 -555 556 0
-556 560 0
-112 -556 557 0
-557 561 0
-113 -557 0
-110 558 0
-558 562 0
-111 -558 559 0
-559 563 0
-112 -559 560 0
-560 564 0
-113 -560 561 0
-561 565 0
-114 -561 0
-111 562 0
-562 566 0
-112 -562 563 0
-563 567 0
-113 -563 564 0
-564 568 0
-114 -564 565 0
-565 569 0
-115 -565 0
-112 566 0
-566 570 0
-113 -566 567 0
-567 571 0
-114 -567 568 0
-568 572 0
-115 -568 569 0
-569 573 0
-116 -569 0
-113 570 0
-570 574 0
-114 -570 571 0
-571 575 0
-115 -571 572 0
-572 576 0
-116 -572 573 0
-573 577 0
-117 -573 0
-114 574 0
-574 578 0
-115 -574 575 0
-575 579 0
-116 -575 576 0
-576 580 0
-117 -576 577 0
-577 581 0
-118 -577 0
-115 578 0
-578 582 0
-116 -578 579 0
-579 583 0
-117 -579 580 0
-580 584 0
-118 -580 581 0
-581 585 0
-119 -581 0
-116 582 0
-582 586 0
-117 -582 583 0
-583 587 0
-118 -583 584 0
-584 588 0
-119 -584 585 0
-585 589 0
-120 -585 0
-117 586 0
-118 -586 587 0
-119 -587 588 0
-120 -588 589 0
-121 -589 0
